NAME          DESIGN_SCHEDULING
ROWS
 N   O0
 L   C0
 L   C1
 L   C2
 L   C3
 L   C4
 L   C5
 L   C6
 L   C7
 L   C8
 L   C9
 L   C10
 L   C11
 L   C12
 L   C13
 L   C14
 L   C15
 L   C16
 L   C17
 L   C18
 L   C19
 L   C20
 L   C21
 L   C22
 L   C23
 L   C24
 L   C25
 E   C26
 E   C27
 E   C28
 E   C29
 E   C30
 E   C31
 E   C32
 E   C33
 E   C34
 E   C35
 E   C36
 E   C37
 E   C38
 E   C39
 E   C40
 E   C41
 E   C42
 E   C43
 E   C44
 E   C45
 E   C46
 E   C47
 E   C48
 E   C49
 E   C50
 E   C51
 E   C52
 E   C53
 E   C54
 E   C55
 E   C56
 E   C57
 E   C58
 E   C59
 E   C60
 E   C61
 E   C62
 E   C63
 E   C64
 E   C65
 E   C66
 E   C67
 E   C68
 E   C69
 E   C70
 E   C71
 E   C72
 E   C73
 E   C74
 E   C75
 E   C76
 E   C77
 E   C78
 E   C79
COLUMNS
    V0        C26       1.0
    V0        C0        1
    V1        C27       1.0
    V1        C1        1
    V2        C28       1.0
    V2        C2        1
    V3        C29       1.0
    V3        C3        1
    V4        C30       1.0
    V4        C4        1
    V5        C31       -1.0
    V5        C5        -1.0
    V6        C32       -1.0
    V6        C6        -1.0
    V7        C33       -1.0
    V7        C7        -1.0
    V8        C34       -1.0
    V8        C8        -1.0
    V9        C9        1
    V9        C10       -1.0
    V9        C11       -0.888888888888889
    V9        C12       -0.5555555555555556
    V9        C13       -0.7777777777777777
    V9        C35       -993991.0
    X10       C9        -100.0
    V11       C10       1
    V11       C36       -1
    V11       C43       -1.0
    V12       C11       1
    V12       C36       -1
    V12       C44       -1.0
    V13       C12       1
    V13       C36       -1
    V13       C45       -1.0
    V14       C13       1
    V14       C36       -1
    V14       C46       -1.0
    V15       C35       1
    V15       C79       -1.0
    V16       C37       1
    V16       C79       -1
    V17       C36       1
    V17       C37       -49.0
    V17       C47       -1.0
    V18       C14       1
    V18       C15       -0.6666666666666666
    V18       C16       -0.888888888888889
    V18       C17       -1.0
    V18       C18       -0.7777777777777777
    V18       C38       -1439046.0
    X19       C14       -100.0
    V20       C15       1
    V20       C39       -1
    V20       C48       -1.0
    V20       C52       -1.0
    V21       C16       1
    V21       C39       -1
    V21       C49       -1.0
    V21       C53       -1.0
    V22       C17       1
    V22       C39       -1
    V22       C50       -1.0
    V22       C54       -1.0
    V23       C18       1
    V23       C39       -1
    V23       C51       -1.0
    V23       C55       -1.0
    V24       C38       1
    V24       C79       -1
    V25       C40       1
    V25       C79       -1
    V26       C39       1
    V26       C40       -90000.0
    V27       C19       1
    V27       C41       -1343614.0
    V27       C20       -1
    V27       C21       -1
    V27       C22       -1
    V27       C23       -1
    X28       C19       -100.0
    V29       C41       1
    V29       C79       -1
    V30       C42       -2000.0
    V30       C56       1
    V31       C42       1
    V31       C79       -1
    V32       C31       1
    V32       C43       1
    V33       C32       1
    V33       C44       1
    V34       C33       1
    V34       C45       1
    V35       C34       1
    V35       C46       1
    V36       C30       -1
    V36       C47       1
    V37       C31       1
    V37       C48       1
    V38       C32       1
    V38       C49       1
    V39       C33       1
    V39       C50       1
    V40       C34       1
    V40       C51       1
    V41       C26       -1
    V41       C52       1
    V42       C27       -1
    V42       C53       1
    V43       C28       -1
    V43       C54       1
    V44       C29       -1
    V44       C55       1
    V45       C56       -1
    V45       C57       -1.0
    V45       C58       1
    V45       C20       1
    V46       C56       -1
    V46       C58       -1.0
    V46       C59       1
    V46       C21       1
    V47       C56       -1
    V47       C59       -1.0
    V47       C60       1
    V47       C22       1
    V48       C56       -1
    V48       C60       -1.0
    V48       C23       1
    V49       C24       -1
    V50       C24       1
    V50       C61       1
    V51       C57       1
    V51       C62       1
    V52       C58       1
    V52       C63       1
    V53       C59       1
    V53       C64       1
    V54       C60       1
    V54       C65       1
    V55       C61       -1
    V55       C62       -1.0
    V55       C66       -1.0
    V56       C61       -1
    V56       C63       -1.0
    V56       C67       -1.0
    V57       C61       -1
    V57       C64       -1.0
    V57       C68       -1.0
    V58       C61       -1
    V58       C65       -1.0
    V58       C69       -1.0
    V59       C31       -1
    V59       C66       1
    V60       C32       -1
    V60       C67       1
    V61       C33       -1
    V61       C68       1
    V62       C34       -1
    V62       C69       1
    V63       C25       -1
    V64       C25       1
    V64       C70       1
    V65       C31       1
    V65       C71       1
    V66       C32       1
    V66       C72       1
    V67       C33       1
    V67       C73       1
    V68       C34       1
    V68       C74       1
    V69       C70       -1
    V69       C71       -1.0
    V69       C75       -1.1111111111111112
    V70       C70       -1
    V70       C72       -1.0
    V70       C76       -1.1111111111111112
    V71       C70       -1
    V71       C73       -1.0
    V71       C77       -1.1111111111111112
    V72       C70       -1
    V72       C74       -1.0
    V72       C78       -1.1111111111111112
    V73       C57       -1
    V73       C75       1
    V74       C58       -1
    V74       C76       1
    V75       C59       -1
    V75       C77       1
    V76       C60       -1
    V76       C78       1
    V77       C79       1
    V77       O0        1
RHS
    RHS0      C0        100.0
    RHS1      C1        100.0
    RHS2      C2        100.0
    RHS3      C3        100.0
    RHS4      C4        400.0
    RHS5      C5        -134.99999999999997
    RHS6      C6        -157.49999999999997
    RHS7      C7        -180.0
    RHS8      C8        -67.49999999999999
    RHS9     C9        0
    RHS10     C10       0
    RHS11     C11       0
    RHS12     C12       0
    RHS13     C13       0
    RHS14     C14       0
    RHS15     C15       0
    RHS16     C16       0
    RHS17     C17       0
    RHS18     C18       0
    RHS19     C19       0
    RHS20     C20       0
    RHS21     C21       0
    RHS22     C22       0
    RHS23     C23       0
    RHS24     C24       0
    RHS25     C25       0
    RHS26     C26       0
    RHS27     C27       0
    RHS28     C28       0
    RHS29     C29       0
    RHS30     C30       0
    RHS31     C31       0
    RHS32     C32       0
    RHS33     C33       0
    RHS34     C34       0
    RHS35     C35       0
    RHS36     C36       0
    RHS37     C37       0
    RHS38     C38       0
    RHS39     C39       0
    RHS40     C40       0
    RHS41     C41       0
    RHS42     C42       0
    RHS43     C43       0
    RHS44     C44       0
    RHS45     C45       0
    RHS46     C46       0
    RHS47     C47       0
    RHS48     C48       0
    RHS49     C49       0
    RHS50     C50       0
    RHS51     C51       0
    RHS52     C52       0
    RHS53     C53       0
    RHS54     C54       0
    RHS55     C55       0
    RHS56     C56       0
    RHS57     C57       0
    RHS58     C58       0
    RHS59     C59       0
    RHS60     C60       0
    RHS61     C61       0
    RHS62     C62       0
    RHS63     C63       0
    RHS64     C64       0
    RHS65     C65       0
    RHS66     C66       0
    RHS67     C67       0
    RHS68     C68       0
    RHS69     C69       0
    RHS70     C70       0
    RHS71     C71       0
    RHS72     C72       0
    RHS73     C73       0
    RHS74     C74       0
    RHS75     C75       0
    RHS76     C76       0
    RHS77     C77       0
    RHS78     C78       0
    RHS79     C79       0
BOUNDS
 LO BND1    V0        0
 LO BND1    V1        0
 LO BND1    V2        0
 LO BND1    V3        0
 LO BND1    V4        0
 LO BND1    V5        0
 LO BND1    V6        0
 LO BND1    V7        0
 LO BND1    V8        0
 LO BND1    V9        0
 LO BND1    X10        0
 LO BND1    V11        0
 LO BND1    V12        0
 LO BND1    V13        0
 LO BND1    V14        0
 LO BND1    V15        0
 LO BND1    V16        0
 LO BND1    V17        0
 LO BND1    V18        0
 LO BND1    X19        0
 LO BND1    V20        0
 LO BND1    V21        0
 LO BND1    V22        0
 LO BND1    V23        0
 LO BND1    V24        0
 LO BND1    V25        0
 LO BND1    V26        0
 LO BND1    V27        0
 LO BND1    X28        0
 LO BND1    V29        0
 LO BND1    V30        0
 LO BND1    V31        0
 LO BND1    V32        0
 LO BND1    V33        0
 LO BND1    V34        0
 LO BND1    V35        0
 LO BND1    V36        0
 LO BND1    V37        0
 LO BND1    V38        0
 LO BND1    V39        0
 LO BND1    V40        0
 LO BND1    V41        0
 LO BND1    V42        0
 LO BND1    V43        0
 LO BND1    V44        0
 LO BND1    V45        0
 LO BND1    V46        0
 LO BND1    V47        0
 LO BND1    V48        0
 LO BND1    V49        0
 LO BND1    V50        0
 LO BND1    V51        0
 LO BND1    V52        0
 LO BND1    V53        0
 LO BND1    V54        0
 LO BND1    V55        0
 LO BND1    V56        0
 LO BND1    V57        0
 LO BND1    V58        0
 LO BND1    V59        0
 LO BND1    V60        0
 LO BND1    V61        0
 LO BND1    V62        0
 LO BND1    V63        0
 LO BND1    V64        0
 LO BND1    V65        0
 LO BND1    V66        0
 LO BND1    V67        0
 LO BND1    V68        0
 LO BND1    V69        0
 LO BND1    V70        0
 LO BND1    V71        0
 LO BND1    V72        0
 LO BND1    V73        0
 LO BND1    V74        0
 LO BND1    V75        0
 LO BND1    V76        0
 LO BND1    V77        0
 BV BND1     X10
 BV BND1     X19
 BV BND1     X28
ENDATA